68
54
105
70
74
63
130
61
108
105
101
159
85
100
113
101
104
77
86
149
97
187
120
57
117
357
304
109
152
206
113
81
96
154
301
247
154
62
53
128
114
104
88
116
184
106
89
114
167
107
65
170
125
108
193
210
73
140
180
185
202
84
119
101
92
65
114
123
101
69
100
209
250
92
137
59
142
261
100
477
60
88
52
110
66
148
110
132
117
98
156
60
73
194
0
119
102
58
118
60
